
Gurobi 12.0.3 (linux64) logging started Fri Dec  5 07:18:53 2025


Gurobi 12.0.3 (linux64) logging started Fri Dec  5 07:42:04 2025

Set parameter Username
Set parameter LicenseID to value 2655070
Academic license - for non-commercial use only - expires 2026-04-21
Gurobi Optimizer version 12.0.3 build v12.0.3rc0 (linux64 - "NixOS 25.11 (Xantusia)")

CPU model: Intel(R) Core(TM) i7-7600U CPU @ 2.80GHz, instruction set [SSE2|AVX|AVX2]
Thread count: 2 physical cores, 4 logical processors, using up to 4 threads

Optimize a model with 3 rows, 2 columns and 6 nonzeros
Model fingerprint: 0xdfb036b6
Variable types: 1 continuous, 1 integer (0 binary)
Coefficient statistics:
  Matrix range     [1e+00, 4e+00]
  Objective range  [1e+00, 8e+00]
  Bounds range     [0e+00, 0e+00]
  RHS range        [1e+01, 3e+01]
Presolve removed 1 rows and 0 columns
Presolve time: 0.01s
Presolved: 2 rows, 2 columns, 4 nonzeros
Variable types: 0 continuous, 2 integer (0 binary)
Found heuristic solution: objective 59.0000000

Explored 0 nodes (0 simplex iterations) in 0.02 seconds (0.00 work units)
Thread count was 4 (of 4 available processors)

Solution count 1: 59 

Optimal solution found (tolerance 1.00e-04)
Best objective 5.900000000000e+01, best bound 5.900000000000e+01, gap 0.0000%

Gurobi 12.0.3 (linux64) logging started Fri Dec  5 09:24:45 2025

Set parameter Username
Set parameter LicenseID to value 2655070
Academic license - for non-commercial use only - expires 2026-04-21
Warning for adding constraints: zero or small (< 1e-13) coefficients, ignored
Gurobi Optimizer version 12.0.3 build v12.0.3rc0 (linux64 - "NixOS 25.11 (Xantusia)")

CPU model: Intel(R) Core(TM) i7-7600U CPU @ 2.80GHz, instruction set [SSE2|AVX|AVX2]
Thread count: 2 physical cores, 4 logical processors, using up to 4 threads

Optimize a model with 99 rows, 116 columns and 456 nonzeros
Model fingerprint: 0x0b6712f8
Variable types: 5 continuous, 111 integer (111 binary)
Coefficient statistics:
  Matrix range     [1e-13, 4e+07]
  Objective range  [1e+00, 1e+00]
  Bounds range     [1e+00, 4e+03]
  RHS range        [1e+00, 2e+04]
Warning: Model contains large matrix coefficient range
         Consider reformulating model or setting NumericFocus parameter
         to avoid numerical issues.
Found heuristic solution: objective 10000.000000
Presolve removed 81 rows and 111 columns
Presolve time: 0.00s
Presolved: 18 rows, 5 columns, 58 nonzeros
Variable types: 5 continuous, 0 integer (0 binary)

Explored 0 nodes (0 simplex iterations) in 0.00 seconds (0.00 work units)
Thread count was 4 (of 4 available processors)

Solution count 1: 10000 

Optimal solution found (tolerance 1.00e-04)
Best objective 1.000000000000e+04, best bound 1.000000000000e+04, gap 0.0000%

Gurobi 12.0.3 (linux64) logging started Fri Dec  5 09:30:04 2025

Set parameter Username
Set parameter LicenseID to value 2655070
Academic license - for non-commercial use only - expires 2026-04-21
Warning for adding constraints: zero or small (< 1e-13) coefficients, ignored
Gurobi Optimizer version 12.0.3 build v12.0.3rc0 (linux64 - "NixOS 25.11 (Xantusia)")

CPU model: Intel(R) Core(TM) i7-7600U CPU @ 2.80GHz, instruction set [SSE2|AVX|AVX2]
Thread count: 2 physical cores, 4 logical processors, using up to 4 threads

Optimize a model with 99 rows, 116 columns and 456 nonzeros
Model fingerprint: 0x0b6712f8
Variable types: 5 continuous, 111 integer (111 binary)
Coefficient statistics:
  Matrix range     [1e-13, 4e+07]
  Objective range  [1e+00, 1e+00]
  Bounds range     [1e+00, 4e+03]
  RHS range        [1e+00, 2e+04]
Warning: Model contains large matrix coefficient range
         Consider reformulating model or setting NumericFocus parameter
         to avoid numerical issues.
Found heuristic solution: objective 10000.000000
Presolve removed 81 rows and 111 columns
Presolve time: 0.00s
Presolved: 18 rows, 5 columns, 58 nonzeros
Variable types: 5 continuous, 0 integer (0 binary)

Explored 0 nodes (0 simplex iterations) in 0.00 seconds (0.00 work units)
Thread count was 4 (of 4 available processors)

Solution count 1: 10000 

Optimal solution found (tolerance 1.00e-04)
Best objective 1.000000000000e+04, best bound 1.000000000000e+04, gap 0.0000%

Gurobi 12.0.3 (linux64) logging started Fri Dec  5 18:07:44 2025

Set parameter Username
Set parameter LicenseID to value 2655070
Academic license - for non-commercial use only - expires 2026-04-21
Warning for adding constraints: zero or small (< 1e-13) coefficients, ignored
Gurobi Optimizer version 12.0.3 build v12.0.3rc0 (linux64 - "NixOS 25.11 (Xantusia)")

CPU model: Intel(R) Core(TM) i7-7600U CPU @ 2.80GHz, instruction set [SSE2|AVX|AVX2]
Thread count: 2 physical cores, 4 logical processors, using up to 4 threads

Optimize a model with 173 rows, 116 columns and 678 nonzeros
Model fingerprint: 0x602c4960
Variable types: 5 continuous, 111 integer (111 binary)
Coefficient statistics:
  Matrix range     [1e-13, 4e+07]
  Objective range  [1e+00, 1e+00]
  Bounds range     [1e+00, 4e+03]
  RHS range        [1e+00, 2e+04]
Warning: Model contains large matrix coefficient range
         Consider reformulating model or setting NumericFocus parameter
         to avoid numerical issues.
Found heuristic solution: objective 10000.000000
Presolve removed 104 rows and 94 columns
Presolve time: 0.00s
Presolved: 69 rows, 22 columns, 231 nonzeros
Variable types: 5 continuous, 17 integer (17 binary)

Explored 0 nodes (0 simplex iterations) in 0.00 seconds (0.00 work units)
Thread count was 4 (of 4 available processors)

Solution count 1: 10000 

Optimal solution found (tolerance 1.00e-04)
Best objective 1.000000000000e+04, best bound 1.000000000000e+04, gap 0.0000%

Gurobi 12.0.3 (linux64) logging started Fri Dec  5 18:13:36 2025

Set parameter Username
Set parameter LicenseID to value 2655070
Academic license - for non-commercial use only - expires 2026-04-21
Warning for adding constraints: zero or small (< 1e-13) coefficients, ignored
Gurobi Optimizer version 12.0.3 build v12.0.3rc0 (linux64 - "NixOS 25.11 (Xantusia)")

CPU model: Intel(R) Core(TM) i7-7600U CPU @ 2.80GHz, instruction set [SSE2|AVX|AVX2]
Thread count: 2 physical cores, 4 logical processors, using up to 4 threads

Optimize a model with 173 rows, 116 columns and 678 nonzeros
Model fingerprint: 0xaf408d49
Variable types: 5 continuous, 111 integer (111 binary)
Coefficient statistics:
  Matrix range     [1e-13, 2e+08]
  Objective range  [1e+00, 1e+00]
  Bounds range     [1e+00, 4e+03]
  RHS range        [1e+00, 2e+08]
Warning: Model contains large matrix coefficient range
         Consider reformulating model or setting NumericFocus parameter
         to avoid numerical issues.
Found heuristic solution: objective 10000.000000
Presolve removed 154 rows and 111 columns
Presolve time: 0.00s
Presolved: 19 rows, 5 columns, 60 nonzeros
Variable types: 5 continuous, 0 integer (0 binary)

Explored 0 nodes (0 simplex iterations) in 0.00 seconds (0.00 work units)
Thread count was 4 (of 4 available processors)

Solution count 1: 10000 

Optimal solution found (tolerance 1.00e-04)
Best objective 1.000000000000e+04, best bound 1.000000000000e+04, gap 0.0000%

Gurobi 12.0.3 (linux64) logging started Fri Dec  5 18:17:07 2025

Set parameter Username
Set parameter LicenseID to value 2655070
Academic license - for non-commercial use only - expires 2026-04-21
Warning for adding constraints: zero or small (< 1e-13) coefficients, ignored
Gurobi Optimizer version 12.0.3 build v12.0.3rc0 (linux64 - "NixOS 25.11 (Xantusia)")

CPU model: Intel(R) Core(TM) i7-7600U CPU @ 2.80GHz, instruction set [SSE2|AVX|AVX2]
Thread count: 2 physical cores, 4 logical processors, using up to 4 threads

Optimize a model with 179 rows, 118 columns and 702 nonzeros
Model fingerprint: 0x3ec0ff4b
Variable types: 5 continuous, 113 integer (113 binary)
Coefficient statistics:
  Matrix range     [1e-13, 2e+08]
  Objective range  [1e+00, 1e+00]
  Bounds range     [1e+00, 4e+03]
  RHS range        [1e+00, 2e+08]
Warning: Model contains large matrix coefficient range
         Consider reformulating model or setting NumericFocus parameter
         to avoid numerical issues.
Found heuristic solution: objective 10000.000000
Presolve removed 160 rows and 113 columns
Presolve time: 0.00s
Presolved: 19 rows, 5 columns, 60 nonzeros
Variable types: 5 continuous, 0 integer (0 binary)

Explored 0 nodes (0 simplex iterations) in 0.00 seconds (0.00 work units)
Thread count was 4 (of 4 available processors)

Solution count 1: 10000 

Optimal solution found (tolerance 1.00e-04)
Best objective 1.000000000000e+04, best bound 1.000000000000e+04, gap 0.0000%

Gurobi 12.0.3 (linux64) logging started Fri Dec  5 18:25:16 2025

Set parameter Username
Set parameter LicenseID to value 2655070
Academic license - for non-commercial use only - expires 2026-04-21
Warning for adding constraints: zero or small (< 1e-13) coefficients, ignored
Gurobi Optimizer version 12.0.3 build v12.0.3rc0 (linux64 - "NixOS 25.11 (Xantusia)")

CPU model: Intel(R) Core(TM) i7-7600U CPU @ 2.80GHz, instruction set [SSE2|AVX|AVX2]
Thread count: 2 physical cores, 4 logical processors, using up to 4 threads

Optimize a model with 286 rows, 115 columns and 1012 nonzeros
Model fingerprint: 0x8f3bd560
Variable types: 5 continuous, 110 integer (110 binary)
Coefficient statistics:
  Matrix range     [1e-13, 2e+08]
  Objective range  [1e+00, 1e+00]
  Bounds range     [1e+00, 2e+04]
  RHS range        [1e+00, 2e+08]
Warning: Model contains large matrix coefficient range
         Consider reformulating model or setting NumericFocus parameter
         to avoid numerical issues.
Presolve removed 5 rows and 1 columns
Presolve time: 0.00s
Presolved: 281 rows, 114 columns, 994 nonzeros
Variable types: 5 continuous, 109 integer (109 binary)
Found heuristic solution: objective 15500.000000
Found heuristic solution: objective 14000.000000
Found heuristic solution: objective 13750.000000

Root relaxation: objective 1.000000e+04, 24 iterations, 0.00 seconds (0.00 work units)

    Nodes    |    Current Node    |     Objective Bounds      |     Work
 Expl Unexpl |  Obj  Depth IntInf | Incumbent    BestBd   Gap | It/Node Time

     0     0 10000.0000    0    4 13750.0000 10000.0000  27.3%     -    0s
H    0     0                    13500.000000 10000.0000  25.9%     -    0s
H    0     0                    10750.000000 10000.0000  6.98%     -    0s
     0     0 10000.0000    0    4 10750.0000 10000.0000  6.98%     -    0s

Explored 1 nodes (50 simplex iterations) in 0.03 seconds (0.02 work units)
Thread count was 4 (of 4 available processors)

Solution count 5: 10750 13500 13750 ... 15500

Optimal solution found (tolerance 1.00e-04)
Best objective 1.075000000000e+04, best bound 1.075000000000e+04, gap 0.0000%

Gurobi 12.0.3 (linux64) logging started Fri Dec  5 18:40:35 2025

Set parameter Username
Set parameter LicenseID to value 2655070
Academic license - for non-commercial use only - expires 2026-04-21
Warning for adding constraints: zero or small (< 1e-13) coefficients, ignored
Gurobi Optimizer version 12.0.3 build v12.0.3rc0 (linux64 - "NixOS 25.11 (Xantusia)")

CPU model: Intel(R) Core(TM) i7-7600U CPU @ 2.80GHz, instruction set [SSE2|AVX|AVX2]
Thread count: 2 physical cores, 4 logical processors, using up to 4 threads

Optimize a model with 286 rows, 115 columns and 1012 nonzeros
Model fingerprint: 0x8f3bd560
Variable types: 5 continuous, 110 integer (110 binary)
Coefficient statistics:
  Matrix range     [1e-13, 2e+08]
  Objective range  [1e+00, 1e+00]
  Bounds range     [1e+00, 2e+04]
  RHS range        [1e+00, 2e+08]
Warning: Model contains large matrix coefficient range
         Consider reformulating model or setting NumericFocus parameter
         to avoid numerical issues.
Presolve removed 5 rows and 1 columns
Presolve time: 0.00s
Presolved: 281 rows, 114 columns, 994 nonzeros
Variable types: 5 continuous, 109 integer (109 binary)
Found heuristic solution: objective 15500.000000
Found heuristic solution: objective 14000.000000
Found heuristic solution: objective 13750.000000

Root relaxation: objective 1.000000e+04, 24 iterations, 0.00 seconds (0.00 work units)

    Nodes    |    Current Node    |     Objective Bounds      |     Work
 Expl Unexpl |  Obj  Depth IntInf | Incumbent    BestBd   Gap | It/Node Time

     0     0 10000.0000    0    4 13750.0000 10000.0000  27.3%     -    0s
H    0     0                    13500.000000 10000.0000  25.9%     -    0s
H    0     0                    10750.000000 10000.0000  6.98%     -    0s
     0     0 10000.0000    0    4 10750.0000 10000.0000  6.98%     -    0s

Explored 1 nodes (50 simplex iterations) in 0.02 seconds (0.02 work units)
Thread count was 4 (of 4 available processors)

Solution count 5: 10750 13500 13750 ... 15500

Optimal solution found (tolerance 1.00e-04)
Best objective 1.075000000000e+04, best bound 1.075000000000e+04, gap 0.0000%

Gurobi 12.0.3 (linux64) logging started Fri Dec  5 18:46:50 2025

Set parameter Username
Set parameter LicenseID to value 2655070
Academic license - for non-commercial use only - expires 2026-04-21
Warning for adding constraints: zero or small (< 1e-13) coefficients, ignored
Gurobi Optimizer version 12.0.3 build v12.0.3rc0 (linux64 - "NixOS 25.11 (Xantusia)")

CPU model: Intel(R) Core(TM) i7-7600U CPU @ 2.80GHz, instruction set [SSE2|AVX|AVX2]
Thread count: 2 physical cores, 4 logical processors, using up to 4 threads

Optimize a model with 286 rows, 115 columns and 1012 nonzeros
Model fingerprint: 0x8f3bd560
Variable types: 5 continuous, 110 integer (110 binary)
Coefficient statistics:
  Matrix range     [1e-13, 2e+08]
  Objective range  [1e+00, 1e+00]
  Bounds range     [1e+00, 2e+04]
  RHS range        [1e+00, 2e+08]
Warning: Model contains large matrix coefficient range
         Consider reformulating model or setting NumericFocus parameter
         to avoid numerical issues.
Presolve removed 5 rows and 1 columns
Presolve time: 0.00s
Presolved: 281 rows, 114 columns, 994 nonzeros
Variable types: 5 continuous, 109 integer (109 binary)
Found heuristic solution: objective 15500.000000
Found heuristic solution: objective 14000.000000
Found heuristic solution: objective 13750.000000

Root relaxation: objective 1.000000e+04, 24 iterations, 0.00 seconds (0.00 work units)

    Nodes    |    Current Node    |     Objective Bounds      |     Work
 Expl Unexpl |  Obj  Depth IntInf | Incumbent    BestBd   Gap | It/Node Time

     0     0 10000.0000    0    4 13750.0000 10000.0000  27.3%     -    0s
H    0     0                    13500.000000 10000.0000  25.9%     -    0s
H    0     0                    10750.000000 10000.0000  6.98%     -    0s
     0     0 10000.0000    0    4 10750.0000 10000.0000  6.98%     -    0s

Explored 1 nodes (50 simplex iterations) in 0.03 seconds (0.02 work units)
Thread count was 4 (of 4 available processors)

Solution count 5: 10750 13500 13750 ... 15500

Optimal solution found (tolerance 1.00e-04)
Best objective 1.075000000000e+04, best bound 1.075000000000e+04, gap 0.0000%

Gurobi 12.0.3 (linux64) logging started Fri Dec  5 18:47:33 2025

Set parameter Username
Set parameter LicenseID to value 2655070
Academic license - for non-commercial use only - expires 2026-04-21
Warning for adding constraints: zero or small (< 1e-13) coefficients, ignored
Gurobi Optimizer version 12.0.3 build v12.0.3rc0 (linux64 - "NixOS 25.11 (Xantusia)")

CPU model: Intel(R) Core(TM) i7-7600U CPU @ 2.80GHz, instruction set [SSE2|AVX|AVX2]
Thread count: 2 physical cores, 4 logical processors, using up to 4 threads

Optimize a model with 286 rows, 115 columns and 1012 nonzeros
Model fingerprint: 0x8f3bd560
Variable types: 5 continuous, 110 integer (110 binary)
Coefficient statistics:
  Matrix range     [1e-13, 2e+08]
  Objective range  [1e+00, 1e+00]
  Bounds range     [1e+00, 2e+04]
  RHS range        [1e+00, 2e+08]
Warning: Model contains large matrix coefficient range
         Consider reformulating model or setting NumericFocus parameter
         to avoid numerical issues.
Presolve removed 5 rows and 1 columns
Presolve time: 0.00s
Presolved: 281 rows, 114 columns, 994 nonzeros
Variable types: 5 continuous, 109 integer (109 binary)
Found heuristic solution: objective 15500.000000
Found heuristic solution: objective 14000.000000
Found heuristic solution: objective 13750.000000

Root relaxation: objective 1.000000e+04, 24 iterations, 0.00 seconds (0.00 work units)

    Nodes    |    Current Node    |     Objective Bounds      |     Work
 Expl Unexpl |  Obj  Depth IntInf | Incumbent    BestBd   Gap | It/Node Time

     0     0 10000.0000    0    4 13750.0000 10000.0000  27.3%     -    0s
H    0     0                    13500.000000 10000.0000  25.9%     -    0s
H    0     0                    10750.000000 10000.0000  6.98%     -    0s
     0     0 10000.0000    0    4 10750.0000 10000.0000  6.98%     -    0s

Explored 1 nodes (50 simplex iterations) in 0.02 seconds (0.02 work units)
Thread count was 4 (of 4 available processors)

Solution count 5: 10750 13500 13750 ... 15500

Optimal solution found (tolerance 1.00e-04)
Best objective 1.075000000000e+04, best bound 1.075000000000e+04, gap 0.0000%

Gurobi 12.0.3 (linux64) logging started Fri Dec  5 18:49:49 2025

Set parameter Username
Set parameter LicenseID to value 2655070
Academic license - for non-commercial use only - expires 2026-04-21
Warning for adding constraints: zero or small (< 1e-13) coefficients, ignored
Gurobi Optimizer version 12.0.3 build v12.0.3rc0 (linux64 - "NixOS 25.11 (Xantusia)")

CPU model: Intel(R) Core(TM) i7-7600U CPU @ 2.80GHz, instruction set [SSE2|AVX|AVX2]
Thread count: 2 physical cores, 4 logical processors, using up to 4 threads

Optimize a model with 286 rows, 115 columns and 1012 nonzeros
Model fingerprint: 0x8f3bd560
Variable types: 5 continuous, 110 integer (110 binary)
Coefficient statistics:
  Matrix range     [1e-13, 2e+08]
  Objective range  [1e+00, 1e+00]
  Bounds range     [1e+00, 2e+04]
  RHS range        [1e+00, 2e+08]
Warning: Model contains large matrix coefficient range
         Consider reformulating model or setting NumericFocus parameter
         to avoid numerical issues.
Presolve removed 5 rows and 1 columns
Presolve time: 0.01s
Presolved: 281 rows, 114 columns, 994 nonzeros
Variable types: 5 continuous, 109 integer (109 binary)
Found heuristic solution: objective 15500.000000
Found heuristic solution: objective 14000.000000
Found heuristic solution: objective 13750.000000

Root relaxation: objective 1.000000e+04, 24 iterations, 0.00 seconds (0.00 work units)

    Nodes    |    Current Node    |     Objective Bounds      |     Work
 Expl Unexpl |  Obj  Depth IntInf | Incumbent    BestBd   Gap | It/Node Time

     0     0 10000.0000    0    4 13750.0000 10000.0000  27.3%     -    0s
H    0     0                    13500.000000 10000.0000  25.9%     -    0s
H    0     0                    10750.000000 10000.0000  6.98%     -    0s
     0     0 10000.0000    0    4 10750.0000 10000.0000  6.98%     -    0s

Explored 1 nodes (50 simplex iterations) in 0.03 seconds (0.02 work units)
Thread count was 4 (of 4 available processors)

Solution count 5: 10750 13500 13750 ... 15500

Optimal solution found (tolerance 1.00e-04)
Best objective 1.075000000000e+04, best bound 1.075000000000e+04, gap 0.0000%

Gurobi 12.0.3 (linux64) logging started Fri Dec  5 18:57:47 2025

Set parameter Username
Set parameter LicenseID to value 2655070
Academic license - for non-commercial use only - expires 2026-04-21
Warning for adding constraints: zero or small (< 1e-13) coefficients, ignored
Gurobi Optimizer version 12.0.3 build v12.0.3rc0 (linux64 - "NixOS 25.11 (Xantusia)")

CPU model: Intel(R) Core(TM) i7-7600U CPU @ 2.80GHz, instruction set [SSE2|AVX|AVX2]
Thread count: 2 physical cores, 4 logical processors, using up to 4 threads

Optimize a model with 286 rows, 115 columns and 1014 nonzeros
Model fingerprint: 0x6637c990
Variable types: 5 continuous, 110 integer (110 binary)
Coefficient statistics:
  Matrix range     [1e-13, 2e+08]
  Objective range  [1e+00, 1e+00]
  Bounds range     [1e+00, 2e+04]
  RHS range        [1e+00, 2e+08]
Warning: Model contains large matrix coefficient range
         Consider reformulating model or setting NumericFocus parameter
         to avoid numerical issues.
Presolve time: 0.00s
Presolved: 286 rows, 115 columns, 1010 nonzeros
Variable types: 5 continuous, 110 integer (110 binary)
Found heuristic solution: objective 12500.000000
Found heuristic solution: objective 11000.000000
Found heuristic solution: objective 10750.000000

Root relaxation: objective 1.050000e+04, 3 iterations, 0.00 seconds (0.00 work units)

    Nodes    |    Current Node    |     Objective Bounds      |     Work
 Expl Unexpl |  Obj  Depth IntInf | Incumbent    BestBd   Gap | It/Node Time

     0     0 infeasible    0      10750.0000 10750.0000  0.00%     -    0s

Explored 1 nodes (3 simplex iterations) in 0.02 seconds (0.01 work units)
Thread count was 4 (of 4 available processors)

Solution count 3: 10750 11000 12500 

Optimal solution found (tolerance 1.00e-04)
Best objective 1.075000000000e+04, best bound 1.075000000000e+04, gap 0.0000%

Gurobi 12.0.3 (linux64) logging started Fri Dec  5 18:58:42 2025

Set parameter Username
Set parameter LicenseID to value 2655070
Academic license - for non-commercial use only - expires 2026-04-21
Warning for adding constraints: zero or small (< 1e-13) coefficients, ignored
Gurobi Optimizer version 12.0.3 build v12.0.3rc0 (linux64 - "NixOS 25.11 (Xantusia)")

CPU model: Intel(R) Core(TM) i7-7600U CPU @ 2.80GHz, instruction set [SSE2|AVX|AVX2]
Thread count: 2 physical cores, 4 logical processors, using up to 4 threads

Optimize a model with 286 rows, 115 columns and 1014 nonzeros
Model fingerprint: 0x6637c990
Variable types: 5 continuous, 110 integer (110 binary)
Coefficient statistics:
  Matrix range     [1e-13, 2e+08]
  Objective range  [1e+00, 1e+00]
  Bounds range     [1e+00, 2e+04]
  RHS range        [1e+00, 2e+08]
Warning: Model contains large matrix coefficient range
         Consider reformulating model or setting NumericFocus parameter
         to avoid numerical issues.
Presolve time: 0.00s
Presolved: 286 rows, 115 columns, 1010 nonzeros
Variable types: 5 continuous, 110 integer (110 binary)
Found heuristic solution: objective 12500.000000
Found heuristic solution: objective 11000.000000
Found heuristic solution: objective 10750.000000

Root relaxation: objective 1.050000e+04, 3 iterations, 0.00 seconds (0.00 work units)

    Nodes    |    Current Node    |     Objective Bounds      |     Work
 Expl Unexpl |  Obj  Depth IntInf | Incumbent    BestBd   Gap | It/Node Time

     0     0 infeasible    0      10750.0000 10750.0000  0.00%     -    0s

Explored 1 nodes (3 simplex iterations) in 0.02 seconds (0.01 work units)
Thread count was 4 (of 4 available processors)

Solution count 3: 10750 11000 12500 

Optimal solution found (tolerance 1.00e-04)
Best objective 1.075000000000e+04, best bound 1.075000000000e+04, gap 0.0000%
